2000	50	0,6	0,15	2,75853740	80
2000	50	0,6	0,15	2,75190910	80
2000	50	0,6	0,15	2,77209660	80
2000	50	0,6	0,15	3,06455440	80
2000	50	0,6	0,15	3,15586540	80
2000	50	0,6	0,15	2,76915540	80
2000	50	0,6	0,15	2,77199820	80
2000	50	0,6	0,15	2,76063020	80
2000	50	0,6	0,15	2,75923810	80
2000	50	0,6	0,15	2,77670420	80
